NAME : BHR102B.1750692.tour
COMMENT : Cost = 0_1750692
COMMENT : Found by LKH [Keld Helsgaun] Tue Apr 25 16:54:44 2017
TYPE : TOUR
DIMENSION : 122
TOUR_SECTION
1
31
52
10
67
71
119
2
66
82
51
114
22
40
24
68
56
5
26
27
121
74
23
76
57
75
73
105
95
96
99
92
87
18
6
106
64
65
50
49
112
28
77
54
103
70
89
11
32
115
34
72
79
35
36
4
78
109
93
86
17
94
97
122
15
39
44
101
38
110
100
7
113
88
58
98
14
59
102
62
85
118
37
48
20
47
83
61
90
108
3
16
41
104
29
30
80
55
116
46
9
84
117
42
69
25
81
13
120
19
111
53
8
63
12
91
21
33
107
43
45
60
-1
EOF
